\ This file has been generated by DOcplex
\ ENCODING=ISO-8859-1
\Problem name: mknap2

Maximize
 obj: 100 x_0 + 220 x_1 + 90 x_2 + 400 x_3 + 300 x_4 + 400 x_5 + 205 x_6
      + 120 x_7 + 160 x_8 + 580 x_9 + 400 x_10 + 140 x_11 + 100 x_12 + 1300 x_13
      + 650 x_14
Subject To
 c1: 8 x_0 + 24 x_1 + 13 x_2 + 80 x_3 + 70 x_4 + 80 x_5 + 45 x_6 + 15 x_7
     + 28 x_8 + 90 x_9 + 130 x_10 + 32 x_11 + 20 x_12 + 120 x_13 + 40 x_14 <= 
     550
 c2: 8 x_0 + 44 x_1 + 13 x_2 + 100 x_3 + 100 x_4 + 90 x_5 + 75 x_6 + 25 x_7
     + 28 x_8 + 120 x_9 + 130 x_10 + 32 x_11 + 40 x_12 + 160 x_13 + 40 x_14 <= 
     700
 c3: 3 x_0 + 6 x_1 + 4 x_2 + 20 x_3 + 20 x_4 + 30 x_5 + 8 x_6 + 3 x_7 + 12 x_8
     + 14 x_9 + 40 x_10 + 6 x_11 + 3 x_12 + 20 x_13 + 5 x_14 <= 130
 c4: 5 x_0 + 9 x_1 + 6 x_2 + 40 x_3 + 30 x_4 + 40 x_5 + 16 x_6 + 5 x_7 + 18 x_8
     + 24 x_9 + 60 x_10 + 16 x_11 + 11 x_12 + 30 x_13 + 25 x_14 <= 240
 c5: 5 x_0 + 11 x_1 + 7 x_2 + 50 x_3 + 40 x_4 + 40 x_5 + 19 x_6 + 7 x_7 + 18 x_8
     + 29 x_9 + 70 x_10 + 21 x_11 + 17 x_12 + 30 x_13 + 25 x_14 <= 280
 c6: 5 x_0 + 11 x_1 + 7 x_2 + 55 x_3 + 40 x_4 + 40 x_5 + 21 x_6 + 9 x_7 + 18 x_8
     + 29 x_9 + 70 x_10 + 21 x_11 + 17 x_12 + 35 x_13 + 25 x_14 <= 310
 c7: x_2 + 10 x_3 + 4 x_4 + 10 x_5 + 6 x_7 + 6 x_9 + 32 x_10 + 3 x_11 + 70 x_13
     + 10 x_14 <= 110
 c8: 3 x_0 + 4 x_1 + 5 x_2 + 20 x_3 + 14 x_4 + 20 x_5 + 6 x_6 + 12 x_7 + 10 x_8
     + 18 x_9 + 42 x_10 + 9 x_11 + 12 x_12 + 100 x_13 + 20 x_14 <= 205
 c9: 3 x_0 + 6 x_1 + 9 x_2 + 30 x_3 + 29 x_4 + 20 x_5 + 12 x_6 + 12 x_7 + 10 x_8
     + 30 x_9 + 42 x_10 + 18 x_11 + 18 x_12 + 110 x_13 + 20 x_14 <= 260
 c10: 3 x_0 + 8 x_1 + 9 x_2 + 35 x_3 + 29 x_4 + 20 x_5 + 16 x_6 + 15 x_7
      + 10 x_8 + 30 x_9 + 42 x_10 + 20 x_11 + 18 x_12 + 120 x_13 + 20 x_14 <= 
      275

Bounds
 0 <= x_0 <= 1
 0 <= x_1 <= 1
 0 <= x_2 <= 1
 0 <= x_3 <= 1
 0 <= x_4 <= 1
 0 <= x_5 <= 1
 0 <= x_6 <= 1
 0 <= x_7 <= 1
 0 <= x_8 <= 1
 0 <= x_9 <= 1
 0 <= x_10 <= 1
 0 <= x_11 <= 1
 0 <= x_12 <= 1
 0 <= x_13 <= 1
 0 <= x_14 <= 1

Binaries
 x_0 x_1 x_2 x_3 x_4 x_5 x_6 x_7 x_8 x_9 x_10 x_11 x_12 x_13 x_14
End
